;https://github.com/sosy-lab/sv-benchmarks/blob/svcomp14/c/bitvector/jain_7_true.c
(set-logic QF_BV)
(declare-fun |nondet_symex::nondet0| () (_ BitVec 32))
(declare-fun |nondet_symex::nondet1| () (_ BitVec 32))
(declare-fun |nondet_symex::nondet2| () (_ BitVec 32))
(declare-fun |nondet_symex::nondet3| () (_ BitVec 32))
(declare-fun |nondet_symex::nondet4| () (_ BitVec 32))
(declare-fun |nondet_symex::nondet5| () (_ BitVec 32))
(declare-fun |nondet_symex::nondet6| () (_ BitVec 32))
(declare-fun |nondet_symex::nondet7| () (_ BitVec 32))
(declare-fun |nondet_symex::nondet8| () (_ BitVec 32))
(declare-fun |nondet_symex::nondet9| () (_ BitVec 32))
(declare-fun |nondet_symex::nondet10| () (_ BitVec 32))
(declare-fun |nondet_symex::nondet11| () (_ BitVec 32))
(declare-fun |nondet_symex::nondet12| () (_ BitVec 32))
(declare-fun |nondet_symex::nondet13| () (_ BitVec 32))
(declare-fun |nondet_symex::nondet14| () (_ BitVec 32))
(declare-fun |nondet_symex::nondet15| () (_ BitVec 32))
(declare-fun |nondet_symex::nondet16| () (_ BitVec 32))
(declare-fun |nondet_symex::nondet17| () (_ BitVec 32))
(declare-fun |nondet_symex::nondet18| () (_ BitVec 32))
(declare-fun |nondet_symex::nondet19| () (_ BitVec 32))
(declare-fun |nondet_symex::nondet20| () (_ BitVec 32))
(declare-fun |nondet_symex::nondet21| () (_ BitVec 32))
(declare-fun |nondet_symex::nondet22| () (_ BitVec 32))
(declare-fun |nondet_symex::nondet23| () (_ BitVec 32))
(declare-fun |nondet_symex::nondet24| () (_ BitVec 32))
(declare-fun |nondet_symex::nondet25| () (_ BitVec 32))
(declare-fun |nondet_symex::nondet26| () (_ BitVec 32))
(declare-fun |nondet_symex::nondet27| () (_ BitVec 32))
(declare-fun |nondet_symex::nondet28| () (_ BitVec 32))
(declare-fun |nondet_symex::nondet29| () (_ BitVec 32))
(declare-fun |nondet_symex::nondet30| () (_ BitVec 32))
(declare-fun |nondet_symex::nondet31| () (_ BitVec 32))
(declare-fun |nondet_symex::nondet32| () (_ BitVec 32))
(declare-fun |nondet_symex::nondet33| () (_ BitVec 32))
(declare-fun |nondet_symex::nondet34| () (_ BitVec 32))
(declare-fun |nondet_symex::nondet35| () (_ BitVec 32))
(declare-fun |nondet_symex::nondet36| () (_ BitVec 32))
(declare-fun |nondet_symex::nondet37| () (_ BitVec 32))
(declare-fun |nondet_symex::nondet38| () (_ BitVec 32))
(declare-fun |nondet_symex::nondet39| () (_ BitVec 32))
(declare-fun |nondet_symex::nondet40| () (_ BitVec 32))
(declare-fun |nondet_symex::nondet41| () (_ BitVec 32))
(declare-fun |nondet_symex::nondet42| () (_ BitVec 32))
(declare-fun |nondet_symex::nondet43| () (_ BitVec 32))
(declare-fun |nondet_symex::nondet44| () (_ BitVec 32))
(declare-fun |nondet_symex::nondet45| () (_ BitVec 32))
(declare-fun |nondet_symex::nondet46| () (_ BitVec 32))
(declare-fun |nondet_symex::nondet47| () (_ BitVec 32))
(declare-fun |nondet_symex::nondet48| () (_ BitVec 32))
(declare-fun |nondet_symex::nondet49| () (_ BitVec 32))
(declare-fun |nondet_symex::nondet50| () (_ BitVec 32))
(define-fun $e1 () (_ BitVec 32) 
 (bvmul |nondet_symex::nondet0| #b00000000000100000000000000000000))
(define-fun $e2 () (_ BitVec 32) 
 (bvmul |nondet_symex::nondet1| #b00000000001000000000000000000000))
(define-fun $e3 () (_ BitVec 32) 
 (bvmul |nondet_symex::nondet2| #b00000000010000000000000000000000))
(define-fun $e4 () (_ BitVec 32) 
 (bvmul #b00000000000100000000000000000000 |nondet_symex::nondet3|))
(define-fun $e5 () (_ BitVec 32) 
 (bvmul #b00000000001000000000000000000000 |nondet_symex::nondet4|))
(define-fun $e6 () (_ BitVec 32) 
 (bvmul #b00000000010000000000000000000000 |nondet_symex::nondet5|))
(define-fun $e7 () (_ BitVec 32) 
 (bvmul #b00000000000100000000000000000000 |nondet_symex::nondet6|))
(define-fun $e8 () (_ BitVec 32) 
 (bvadd $e4 $e7))
(define-fun $e9 () (_ BitVec 32) 
 (bvadd $e1 $e8))
(define-fun $e10 () (_ BitVec 32) 
 (bvmul #b00000000001000000000000000000000 |nondet_symex::nondet7|))
(define-fun $e11 () (_ BitVec 32) 
 (bvadd $e5 $e10))
(define-fun $e12 () (_ BitVec 32) 
 (bvadd $e2 $e11))
(define-fun $e13 () (_ BitVec 32) 
 (bvmul #b00000000010000000000000000000000 |nondet_symex::nondet8|))
(define-fun $e14 () (_ BitVec 32) 
 (bvmul #b00000000000100000000000000000000 |nondet_symex::nondet9|))
(define-fun $e15 () (_ BitVec 32) 
 (bvmul #b00000000001000000000000000000000 |nondet_symex::nondet10|))
(define-fun $e16 () (_ BitVec 32) 
 (bvmul #b00000000010000000000000000000000 |nondet_symex::nondet11|))
(define-fun $e17 () (_ BitVec 32) 
 (bvmul #b00000000000100000000000000000000 |nondet_symex::nondet12|))
(define-fun $e18 () (_ BitVec 32) 
 (bvmul #b00000000001000000000000000000000 |nondet_symex::nondet13|))
(define-fun $e19 () (_ BitVec 32) 
 (bvmul #b00000000010000000000000000000000 |nondet_symex::nondet14|))
(define-fun $e20 () (_ BitVec 32) 
 (bvmul #b00000000000100000000000000000000 |nondet_symex::nondet15|))
(define-fun $e21 () (_ BitVec 32) 
 (bvmul #b00000000001000000000000000000000 |nondet_symex::nondet16|))
(define-fun $e22 () (_ BitVec 32) 
 (bvmul #b00000000010000000000000000000000 |nondet_symex::nondet17|))
(define-fun $e23 () (_ BitVec 32) 
 (bvmul #b00000000000100000000000000000000 |nondet_symex::nondet18|))
(define-fun $e24 () (_ BitVec 32) 
 (bvmul #b00000000001000000000000000000000 |nondet_symex::nondet19|))
(define-fun $e25 () (_ BitVec 32) 
 (bvmul #b00000000010000000000000000000000 |nondet_symex::nondet20|))
(define-fun $e26 () (_ BitVec 32) 
 (bvmul #b00000000000100000000000000000000 |nondet_symex::nondet21|))
(define-fun $e27 () (_ BitVec 32) 
 (bvmul #b00000000001000000000000000000000 |nondet_symex::nondet22|))
(define-fun $e28 () (_ BitVec 32) 
 (bvmul #b00000000010000000000000000000000 |nondet_symex::nondet23|))
(define-fun $e29 () (_ BitVec 32) 
 (bvmul #b00000000000100000000000000000000 |nondet_symex::nondet24|))
(define-fun $e30 () (_ BitVec 32) 
 (bvmul #b00000000001000000000000000000000 |nondet_symex::nondet25|))
(define-fun $e31 () (_ BitVec 32) 
 (bvmul #b00000000010000000000000000000000 |nondet_symex::nondet26|))
(define-fun $e32 () (_ BitVec 32) 
 (bvmul #b00000000000100000000000000000000 |nondet_symex::nondet27|))
(define-fun $e33 () (_ BitVec 32) 
 (bvmul #b00000000001000000000000000000000 |nondet_symex::nondet28|))
(define-fun $e34 () (_ BitVec 32) 
 (bvmul #b00000000010000000000000000000000 |nondet_symex::nondet29|))
(define-fun $e35 () (_ BitVec 32) 
 (bvmul #b00000000000100000000000000000000 |nondet_symex::nondet30|))
(define-fun $e36 () (_ BitVec 32) 
 (bvmul #b00000000001000000000000000000000 |nondet_symex::nondet31|))
(define-fun $e37 () (_ BitVec 32) 
 (bvmul #b00000000010000000000000000000000 |nondet_symex::nondet32|))
(define-fun $e38 () (_ BitVec 32) 
 (bvmul #b00000000000100000000000000000000 |nondet_symex::nondet33|))
(define-fun $e39 () (_ BitVec 32) 
 (bvmul #b00000000001000000000000000000000 |nondet_symex::nondet34|))
(define-fun $e40 () (_ BitVec 32) 
 (bvmul #b00000000010000000000000000000000 |nondet_symex::nondet35|))
(define-fun $e41 () (_ BitVec 32) 
 (bvmul #b00000000000100000000000000000000 |nondet_symex::nondet36|))
(define-fun $e42 () (_ BitVec 32) 
 (bvmul #b00000000001000000000000000000000 |nondet_symex::nondet37|))
(define-fun $e43 () (_ BitVec 32) 
 (bvmul #b00000000010000000000000000000000 |nondet_symex::nondet38|))
(define-fun $e44 () (_ BitVec 32) 
 (bvmul #b00000000000100000000000000000000 |nondet_symex::nondet39|))
(define-fun $e45 () (_ BitVec 32) 
 (bvmul #b00000000001000000000000000000000 |nondet_symex::nondet40|))
(define-fun $e46 () (_ BitVec 32) 
 (bvmul #b00000000010000000000000000000000 |nondet_symex::nondet41|))
(define-fun $e47 () (_ BitVec 32) 
 (bvmul #b00000000000100000000000000000000 |nondet_symex::nondet42|))
(define-fun $e48 () (_ BitVec 32) 
 (bvmul #b00000000001000000000000000000000 |nondet_symex::nondet43|))
(define-fun $e49 () (_ BitVec 32) 
 (bvmul #b00000000010000000000000000000000 |nondet_symex::nondet44|))
(define-fun $e50 () (_ BitVec 32) 
 (bvmul #b00000000000100000000000000000000 |nondet_symex::nondet45|))
(define-fun $e51 () (_ BitVec 32) 
 (bvmul #b00000000001000000000000000000000 |nondet_symex::nondet46|))
(define-fun $e52 () (_ BitVec 32) 
 (bvmul #b00000000010000000000000000000000 |nondet_symex::nondet47|))
(assert 
 (not 
  (and 
   (not 
    (= #b00000000000100000000000000000000 
     (bvadd 
      (bvmul 
       (bvadd $e1 $e4) #b00000000000000000000000000000100) 
      (bvadd $e3 
       (bvadd $e6 
        (bvmul #b11111111111111111111111111111110 
         (bvadd $e2 $e5))))))) 
   (not 
    (= #b00000000000100000000000000000000 
     (bvadd 
      (bvmul |nondet_symex::nondet0| #b00000000010000000000000000000000) 
      (bvadd $e3 
       (bvmul |nondet_symex::nondet1| #b11111111110000000000000000000000))))) 
   (not 
    (= #b00000000000100000000000000000000 
     (bvadd 
      (bvmul #b00000000000000000000000000000100 $e9) 
      (bvadd $e3 
       (bvadd $e6 
        (bvadd $e13 
         (bvmul #b11111111111111111111111111111110 $e12))))))) 
   (not 
    (= #b00000000000100000000000000000000 
     (bvadd 
      (bvmul #b00000000000000000000000000000100 
       (bvadd $e9 $e14)) 
      (bvadd $e16 
       (bvadd $e3 
        (bvadd $e6 
         (bvadd $e13 
          (bvmul #b11111111111111111111111111111110 
           (bvadd $e12 $e15))))))))) 
   (not 
    (= #b00000000000100000000000000000000 
     (bvadd 
      (bvmul #b00000000000000000000000000000100 
       (bvadd $e14 
        (bvadd $e9 $e17))) 
      (bvadd $e16 
       (bvadd $e19 
        (bvadd $e3 
         (bvadd $e6 
          (bvadd $e13 
           (bvmul #b11111111111111111111111111111110 
            (bvadd $e15 
             (bvadd $e12 $e18))))))))))) 
   (not 
    (= #b00000000000100000000000000000000 
     (bvadd 
      (bvmul #b00000000000000000000000000000100 
       (bvadd $e14 
        (bvadd $e17 
         (bvadd $e9 $e20)))) 
      (bvadd $e16 
       (bvadd $e19 
        (bvadd $e22 
         (bvadd $e3 
          (bvadd $e6 
           (bvadd $e13 
            (bvmul #b11111111111111111111111111111110 
             (bvadd $e15 
              (bvadd $e18 
               (bvadd $e12 $e21))))))))))))) 
   (not 
    (= #b00000000000100000000000000000000 
     (bvadd 
      (bvmul #b00000000000000000000000000000100 
       (bvadd $e14 
        (bvadd $e17 
         (bvadd $e20 
          (bvadd $e1 
           (bvadd $e8 $e23)))))) 
      (bvadd $e16 
       (bvadd $e19 
        (bvadd $e22 
         (bvadd $e3 
          (bvadd $e25 
           (bvadd $e6 
            (bvadd $e13 
             (bvmul #b11111111111111111111111111111110 
              (bvadd $e15 
               (bvadd $e18 
                (bvadd $e21 
                 (bvadd $e2 
                  (bvadd $e11 $e24)))))))))))))))) 
   (not 
    (= #b00000000000100000000000000000000 
     (bvadd 
      (bvmul #b00000000000000000000000000000100 
       (bvadd $e14 
        (bvadd $e17 
         (bvadd $e20 
          (bvadd $e1 
           (bvadd $e23 
            (bvadd $e8 $e26))))))) 
      (bvadd $e16 
       (bvadd $e19 
        (bvadd $e22 
         (bvadd $e3 
          (bvadd $e25 
           (bvadd $e28 
            (bvadd $e6 
             (bvadd $e13 
              (bvmul #b11111111111111111111111111111110 
               (bvadd $e15 
                (bvadd $e18 
                 (bvadd $e21 
                  (bvadd $e2 
                   (bvadd $e24 
                    (bvadd $e11 $e27)))))))))))))))))) 
   (not 
    (= #b00000000000100000000000000000000 
     (bvadd 
      (bvmul #b00000000000000000000000000000100 
       (bvadd $e14 
        (bvadd $e17 
         (bvadd $e20 
          (bvadd $e1 
           (bvadd $e23 
            (bvadd $e26 
             (bvadd $e8 $e29)))))))) 
      (bvadd $e16 
       (bvadd $e19 
        (bvadd $e22 
         (bvadd $e3 
          (bvadd $e25 
           (bvadd $e28 
            (bvadd $e31 
             (bvadd $e6 
              (bvadd $e13 
               (bvmul #b11111111111111111111111111111110 
                (bvadd $e15 
                 (bvadd $e18 
                  (bvadd $e21 
                   (bvadd $e2 
                    (bvadd $e24 
                     (bvadd $e27 
                      (bvadd $e11 $e30)))))))))))))))))))) 
   (not 
    (= #b00000000000100000000000000000000 
     (bvadd 
      (bvmul #b00000000000000000000000000000100 
       (bvadd $e14 
        (bvadd $e17 
         (bvadd $e20 
          (bvadd $e1 
           (bvadd $e23 
            (bvadd $e26 
             (bvadd $e29 
              (bvadd $e8 $e32))))))))) 
      (bvadd $e16 
       (bvadd $e19 
        (bvadd $e22 
         (bvadd $e3 
          (bvadd $e25 
           (bvadd $e28 
            (bvadd $e31 
             (bvadd $e34 
              (bvadd $e6 
               (bvadd $e13 
                (bvmul #b11111111111111111111111111111110 
                 (bvadd $e15 
                  (bvadd $e18 
                   (bvadd $e21 
                    (bvadd $e2 
                     (bvadd $e24 
                      (bvadd $e27 
                       (bvadd $e30 
                        (bvadd $e11 $e33)))))))))))))))))))))) 
   (not 
    (= #b00000000000100000000000000000000 
     (bvadd 
      (bvmul #b00000000000000000000000000000100 
       (bvadd $e14 
        (bvadd $e17 
         (bvadd $e20 
          (bvadd $e1 
           (bvadd $e23 
            (bvadd $e26 
             (bvadd $e29 
              (bvadd $e32 
               (bvadd $e8 $e35)))))))))) 
      (bvadd $e16 
       (bvadd $e19 
        (bvadd $e22 
         (bvadd $e3 
          (bvadd $e25 
           (bvadd $e28 
            (bvadd $e31 
             (bvadd $e34 
              (bvadd $e37 
               (bvadd $e6 
                (bvadd $e13 
                 (bvmul #b11111111111111111111111111111110 
                  (bvadd $e15 
                   (bvadd $e18 
                    (bvadd $e21 
                     (bvadd $e2 
                      (bvadd $e24 
                       (bvadd $e27 
                        (bvadd $e30 
                         (bvadd $e33 
                          (bvadd $e11 $e36)))))))))))))))))))))))) 
   (not 
    (= #b00000000000100000000000000000000 
     (bvadd 
      (bvmul #b00000000000000000000000000000100 
       (bvadd $e14 
        (bvadd $e17 
         (bvadd $e20 
          (bvadd $e1 
           (bvadd $e23 
            (bvadd $e26 
             (bvadd $e29 
              (bvadd $e32 
               (bvadd $e35 
                (bvadd $e8 $e38))))))))))) 
      (bvadd $e16 
       (bvadd $e19 
        (bvadd $e22 
         (bvadd $e3 
          (bvadd $e25 
           (bvadd $e28 
            (bvadd $e31 
             (bvadd $e34 
              (bvadd $e37 
               (bvadd $e40 
                (bvadd $e6 
                 (bvadd $e13 
                  (bvmul #b11111111111111111111111111111110 
                   (bvadd $e15 
                    (bvadd $e18 
                     (bvadd $e21 
                      (bvadd $e2 
                       (bvadd $e24 
                        (bvadd $e27 
                         (bvadd $e30 
                          (bvadd $e33 
                           (bvadd $e36 
                            (bvadd $e11 $e39)))))))))))))))))))))))))) 
   (not 
    (= #b00000000000100000000000000000000 
     (bvadd 
      (bvmul #b00000000000000000000000000000100 
       (bvadd $e14 
        (bvadd $e17 
         (bvadd $e20 
          (bvadd $e1 
           (bvadd $e23 
            (bvadd $e26 
             (bvadd $e29 
              (bvadd $e32 
               (bvadd $e35 
                (bvadd $e38 
                 (bvadd $e8 $e41)))))))))))) 
      (bvadd $e16 
       (bvadd $e19 
        (bvadd $e22 
         (bvadd $e3 
          (bvadd $e25 
           (bvadd $e28 
            (bvadd $e31 
             (bvadd $e34 
              (bvadd $e37 
               (bvadd $e40 
                (bvadd $e43 
                 (bvadd $e6 
                  (bvadd $e13 
                   (bvmul #b11111111111111111111111111111110 
                    (bvadd $e15 
                     (bvadd $e18 
                      (bvadd $e21 
                       (bvadd $e2 
                        (bvadd $e24 
                         (bvadd $e27 
                          (bvadd $e30 
                           (bvadd $e33 
                            (bvadd $e36 
                             (bvadd $e39 
                              (bvadd $e11 $e42)))))))))))))))))))))))))))) 
   (not 
    (= #b00000000000100000000000000000000 
     (bvadd 
      (bvmul #b00000000000000000000000000000100 
       (bvadd $e14 
        (bvadd $e17 
         (bvadd $e20 
          (bvadd $e1 
           (bvadd $e23 
            (bvadd $e26 
             (bvadd $e29 
              (bvadd $e32 
               (bvadd $e35 
                (bvadd $e38 
                 (bvadd $e41 
                  (bvadd $e8 $e44))))))))))))) 
      (bvadd $e16 
       (bvadd $e19 
        (bvadd $e22 
         (bvadd $e3 
          (bvadd $e25 
           (bvadd $e28 
            (bvadd $e31 
             (bvadd $e34 
              (bvadd $e37 
               (bvadd $e40 
                (bvadd $e43 
                 (bvadd $e46 
                  (bvadd $e6 
                   (bvadd $e13 
                    (bvmul #b11111111111111111111111111111110 
                     (bvadd $e15 
                      (bvadd $e18 
                       (bvadd $e21 
                        (bvadd $e2 
                         (bvadd $e24 
                          (bvadd $e27 
                           (bvadd $e30 
                            (bvadd $e33 
                             (bvadd $e36 
                              (bvadd $e39 
                               (bvadd $e42 
                                (bvadd $e11 $e45)))))))))))))))))))))))))))))) 
   (not 
    (= #b00000000000100000000000000000000 
     (bvadd 
      (bvmul #b00000000000000000000000000000100 
       (bvadd $e14 
        (bvadd $e17 
         (bvadd $e20 
          (bvadd $e1 
           (bvadd $e23 
            (bvadd $e26 
             (bvadd $e29 
              (bvadd $e32 
               (bvadd $e35 
                (bvadd $e38 
                 (bvadd $e41 
                  (bvadd $e44 
                   (bvadd $e8 $e47)))))))))))))) 
      (bvadd $e16 
       (bvadd $e19 
        (bvadd $e22 
         (bvadd $e3 
          (bvadd $e25 
           (bvadd $e28 
            (bvadd $e31 
             (bvadd $e34 
              (bvadd $e37 
               (bvadd $e40 
                (bvadd $e43 
                 (bvadd $e46 
                  (bvadd $e49 
                   (bvadd $e6 
                    (bvadd $e13 
                     (bvmul #b11111111111111111111111111111110 
                      (bvadd $e15 
                       (bvadd $e18 
                        (bvadd $e21 
                         (bvadd $e2 
                          (bvadd $e24 
                           (bvadd $e27 
                            (bvadd $e30 
                             (bvadd $e33 
                              (bvadd $e36 
                               (bvadd $e39 
                                (bvadd $e42 
                                 (bvadd $e45 
                                  (bvadd $e11 $e48)))))))))))))))))))))))))))))))) 
   (not 
    (= #b00000000000100000000000000000000 
     (bvadd 
      (bvmul #b00000000000000000000000000000100 
       (bvadd $e14 
        (bvadd $e17 
         (bvadd $e20 
          (bvadd $e1 
           (bvadd $e23 
            (bvadd $e26 
             (bvadd $e29 
              (bvadd $e32 
               (bvadd $e35 
                (bvadd $e38 
                 (bvadd $e41 
                  (bvadd $e44 
                   (bvadd $e47 
                    (bvadd $e8 $e50))))))))))))))) 
      (bvadd $e16 
       (bvadd $e19 
        (bvadd $e22 
         (bvadd $e3 
          (bvadd $e25 
           (bvadd $e28 
            (bvadd $e31 
             (bvadd $e34 
              (bvadd $e37 
               (bvadd $e40 
                (bvadd $e43 
                 (bvadd $e46 
                  (bvadd $e49 
                   (bvadd $e52 
                    (bvadd $e6 
                     (bvadd $e13 
                      (bvmul #b11111111111111111111111111111110 
                       (bvadd $e15 
                        (bvadd $e18 
                         (bvadd $e21 
                          (bvadd $e2 
                           (bvadd $e24 
                            (bvadd $e27 
                             (bvadd $e30 
                              (bvadd $e33 
                               (bvadd $e36 
                                (bvadd $e39 
                                 (bvadd $e42 
                                  (bvadd $e45 
                                   (bvadd $e48 
                                    (bvadd $e11 $e51)))))))))))))))))))))))))))))))))) 
   (not 
    (= #b00000000000100000000000000000000 
     (bvadd 
      (bvmul #b00000000000000000000000000000100 
       (bvadd $e14 
        (bvadd $e17 
         (bvadd $e20 
          (bvadd $e1 
           (bvadd $e23 
            (bvadd $e26 
             (bvadd $e29 
              (bvadd $e32 
               (bvadd $e35 
                (bvadd $e38 
                 (bvadd $e41 
                  (bvadd $e44 
                   (bvadd $e47 
                    (bvadd $e50 
                     (bvadd $e4 
                      (bvadd $e7 
                       (bvmul #b00000000000100000000000000000000 |nondet_symex::nondet48|)))))))))))))))))) 
      (bvadd $e16 
       (bvadd $e19 
        (bvadd $e22 
         (bvadd $e3 
          (bvadd $e25 
           (bvadd $e28 
            (bvadd $e31 
             (bvadd $e34 
              (bvadd $e37 
               (bvadd $e40 
                (bvadd $e43 
                 (bvadd $e46 
                  (bvadd $e49 
                   (bvadd $e52 
                    (bvadd $e6 
                     (bvadd 
                      (bvmul #b00000000010000000000000000000000 |nondet_symex::nondet50|) 
                      (bvadd $e13 
                       (bvmul #b11111111111111111111111111111110 
                        (bvadd $e15 
                         (bvadd $e18 
                          (bvadd $e21 
                           (bvadd $e2 
                            (bvadd $e24 
                             (bvadd $e27 
                              (bvadd $e30 
                               (bvadd $e33 
                                (bvadd $e36 
                                 (bvadd $e39 
                                  (bvadd $e42 
                                   (bvadd $e45 
                                    (bvadd $e48 
                                     (bvadd $e51 
                                      (bvadd $e5 
                                       (bvadd $e10 
                                        (bvmul #b00000000001000000000000000000000 |nondet_symex::nondet49|)))))))))))))))))))))))))))))))))))))))))
(check-sat)
(exit)
